8390
5793
7720
1843
4794
1844
2194
10128
4923
2152
9753
8303
4429
1210
4505
9031
3751
3485
5544
6896
8920
8961
2169
5764
1026
4591
4217
581
5235
6857
3847
8875
8251
2174
6428
6090
3336
2252
5721
1349
8549
3728
3603
5035
6939
6874
7834
3630
8809
4061
